coords = array2d(1..46, 1..2, [363, 544, 264, 931, 972, 248, 77, 371, 657, 107,
    21, 461, 128, 475, 174, 592, 774, 755, 540, 78, 768, 859, 69, 645,
    963, 859, 741, 51, 365, 735, 601, 490, 289, 388, 528, 506, 570,
    837, 99, 166, 109, 231, 348, 366, 951, 279, 414, 627, 266, 320,
    568, 601, 657, 194, 672, 242, 848, 151, 140, 73, 649, 50, 239, 96,
    263, 126, 513, 261, 719, 942, 895, 508, 442, 715, 837, 216, 358,
    849, 346, 50, 875, 854, 95, 2, 803, 868, 830, 524, 282, 115, 206,
    192]);

n = 46;

